words_hard_train/7953.qaiger
aag 103 16 0 1 87
2
4
10
20
30
36
44
64
72
90
94
100
104
122
142
162
207
6 2 4
8 3 5
12 9 11
14 7 12
16 4 10
18 15 17
22 18 21
24 19 20
26 23 25
28 26 2
32 28 30
34 33 25
38 13 36
40 12 37
42 39 41
46 42 45
48 43 44
50 47 49
52 34 51
54 35 50
56 53 55
58 55 49
60 8 37
62 61 11
66 63 64
68 62 65
70 67 69
74 70 73
76 71 72
78 75 77
80 58 79
82 59 78
84 81 83
86 57 85
88 60 65
92 88 91
96 92 95
98 96 11
102 98 101
106 102 105
108 103 104
110 107 109
112 83 77
114 89 11
116 115 91
118 114 90
120 117 119
124 121 123
126 120 122
128 125 127
130 113 128
132 131 127
134 93 11
136 135 95
138 134 94
140 137 139
144 141 143
146 140 142
148 145 147
150 133 148
152 151 147
154 97 11
156 155 101
158 154 100
160 157 159
164 161 163
166 160 162
168 165 167
170 153 168
172 171 167
174 110 172
176 86 175
178 27 31
180 178 3
182 181 33
184 112 129
186 185 131
188 183 187
190 132 149
192 191 151
194 188 193
196 152 169
198 197 171
200 194 199
202 111 173
204 200 203
206 176 204
i0 1 x1[0]
i1 1 x1[1]
i2 1 x1[7]
i3 2 y1[1]
i4 2 y1[0]
i5 1 x1[2]
i6 2 y1[2]
i7 1 x1[3]
i8 2 y1[3]
i9 1 x1[4]
i10 1 x1[5]
i11 1 x1[6]
i12 2 y1[7]
i13 2 y1[4]
i14 2 y1[5]
i15 2 y1[6]
o0 bool[0]
c
simplified
  !=
    subtract
      2 y1
      abs
        1 x1
    xor
      1 x2
      1 x2
