words_hard_train/7953.qaiger.qdimacs
p cnf 103 262
a 32 1 2 5 45 47 18 50 0
e 3 4 6 7 8 9 10 11 12 13 14 15 16 17 19 20 21 22 23 24 25 26 27 28 29 30 31 33 34 35 36 37 38 39 40 41 42 43 44 46 48 49 51 52 53 54 55 56 57 58 59 60 61 62 63 64 65 66 67 68 69 70 71 72 73 74 75 76 77 78 79 80 81 82 83 84 85 86 87 88 89 90 91 92 93 94 95 96 97 98 99 100 101 102 103 0
-1 -2 3 0
1 -3 0
2 -3 0
1 2 4 0
-1 -4 0
-2 -4 0
4 5 6 0
-4 -6 0
-5 -6 0
3 -6 7 0
-3 -7 0
6 -7 0
-2 -5 8 0
2 -8 0
5 -8 0
7 8 9 0
-7 -9 0
-8 -9 0
-9 10 11 0
9 -11 0
-10 -11 0
9 -10 12 0
-9 -12 0
10 -12 0
11 12 13 0
-11 -13 0
-12 -13 0
-13 -1 14 0
13 -14 0
1 -14 0
-14 -15 16 0
14 -16 0
15 -16 0
16 12 17 0
-16 -17 0
-12 -17 0
6 -18 19 0
-6 -19 0
18 -19 0
-6 18 20 0
6 -20 0
-18 -20 0
19 20 21 0
-19 -21 0
-20 -21 0
-21 22 23 0
21 -23 0
-22 -23 0
21 -22 24 0
-21 -24 0
22 -24 0
23 24 25 0
-23 -25 0
-24 -25 0
-17 25 26 0
17 -26 0
-25 -26 0
17 -25 27 0
-17 -27 0
25 -27 0
26 27 28 0
-26 -28 0
-27 -28 0
27 24 29 0
-27 -29 0
-24 -29 0
-4 18 30 0
4 -30 0
-18 -30 0
30 5 31 0
-30 -31 0
-5 -31 0
31 -32 33 0
-31 -33 0
32 -33 0
-31 32 34 0
31 -34 0
-32 -34 0
33 34 35 0
-33 -35 0
-34 -35 0
-35 36 37 0
35 -37 0
-36 -37 0
35 -36 38 0
-35 -38 0
36 -38 0
37 38 39 0
-37 -39 0
-38 -39 0
-29 39 40 0
29 -40 0
-39 -40 0
29 -39 41 0
-29 -41 0
39 -41 0
40 41 42 0
-40 -42 0
-41 -42 0
28 42 43 0
-28 -43 0
-42 -43 0
-30 32 44 0
30 -44 0
-32 -44 0
-44 45 46 0
44 -46 0
-45 -46 0
-46 47 48 0
46 -48 0
-47 -48 0
-48 5 49 0
48 -49 0
-5 -49 0
-49 50 51 0
49 -51 0
-50 -51 0
-51 52 53 0
51 -53 0
-52 -53 0
51 -52 54 0
-51 -54 0
52 -54 0
53 54 55 0
-53 -55 0
-54 -55 0
41 38 56 0
-41 -56 0
-38 -56 0
44 5 57 0
-44 -57 0
-5 -57 0
57 45 58 0
-57 -58 0
-45 -58 0
-57 -45 59 0
57 -59 0
45 -59 0
58 59 60 0
-58 -60 0
-59 -60 0
60 61 62 0
-60 -62 0
-61 -62 0
-60 -61 63 0
60 -63 0
61 -63 0
62 63 64 0
-62 -64 0
-63 -64 0
56 -64 65 0
-56 -65 0
64 -65 0
65 63 66 0
-65 -66 0
-63 -66 0
46 5 67 0
-46 -67 0
-5 -67 0
67 47 68 0
-67 -68 0
-47 -68 0
-67 -47 69 0
67 -69 0
47 -69 0
68 69 70 0
-68 -70 0
-69 -70 0
70 71 72 0
-70 -72 0
-71 -72 0
-70 -71 73 0
70 -73 0
71 -73 0
72 73 74 0
-72 -74 0
-73 -74 0
66 -74 75 0
-66 -75 0
74 -75 0
75 73 76 0
-75 -76 0
-73 -76 0
48 5 77 0
-48 -77 0
-5 -77 0
77 50 78 0
-77 -78 0
-50 -78 0
-77 -50 79 0
77 -79 0
50 -79 0
78 79 80 0
-78 -80 0
-79 -80 0
80 81 82 0
-80 -82 0
-81 -82 0
-80 -81 83 0
80 -83 0
81 -83 0
82 83 84 0
-82 -84 0
-83 -84 0
76 -84 85 0
-76 -85 0
84 -85 0
85 83 86 0
-85 -86 0
-83 -86 0
-55 -86 87 0
55 -87 0
86 -87 0
-43 87 88 0
43 -88 0
-87 -88 0
13 15 89 0
-13 -89 0
-15 -89 0
-89 1 90 0
89 -90 0
-1 -90 0
90 16 91 0
-90 -91 0
-16 -91 0
-56 64 92 0
56 -92 0
-64 -92 0
92 65 93 0
-92 -93 0
-65 -93 0
91 93 94 0
-91 -94 0
-93 -94 0
-66 74 95 0
66 -95 0
-74 -95 0
95 75 96 0
-95 -96 0
-75 -96 0
-94 96 97 0
94 -97 0
-96 -97 0
-76 84 98 0
76 -98 0
-84 -98 0
98 85 99 0
-98 -99 0
-85 -99 0
-97 99 100 0
97 -100 0
-99 -100 0
55 86 101 0
-55 -101 0
-86 -101 0
-100 101 102 0
100 -102 0
-101 -102 0
-88 -102 103 0
88 -103 0
102 -103 0
-103 0
